************************************************************************
file with basedata            : mm27_.bas
initial value random generator: 1465559734
************************************************************************
projects                      :  1
jobs (incl. supersource/sink ):  12
horizon                       :  73
RESOURCES
  - renewable                 :  2   R
  - nonrenewable              :  2   N
  - doubly constrained        :  0   D
************************************************************************
PROJECT INFORMATION:
pronr.  #jobs rel.date duedate tardcost  MPM-Time
    1     10      0       15        0       15
************************************************************************
PRECEDENCE RELATIONS:
jobnr.    #modes  #successors   successors
   1        1          3           2   3   4
   2        3          1           7
   3        3          1           5
   4        3          3           5   6   8
   5        3          2           7  11
   6        3          2           9  11
   7        3          2           9  10
   8        3          1          10
   9        3          1          12
  10        3          1          12
  11        3          1          12
  12        1          0        
************************************************************************
REQUESTS/DURATIONS:
jobnr. mode duration  R 1  R 2  N 1  N 2
------------------------------------------------------------------------
  1      1     0       0    0    0    0
  2      1     9       2    0    0    2
         2     9       0    6    0    4
         3    10       0    4    7    0
  3      1     1       7    0   10    0
         2     2       6    0    9    0
         3     7       3    0    8    0
  4      1     5       0    4    0    5
         2     8       2    0    0    5
         3     9       0    2    0    4
  5      1     7       8    0    0    4
         2     7       6    0    8    0
         3     9       0    6    0    4
  6      1     2       0    8    0    3
         2     8       0    7    5    0
         3    10       0    7    0    1
  7      1     1       0   10    0    6
         2     5       8    0    0    3
         3     8       0   10    3    0
  8      1     1       5    0    9    0
         2     3       4    0    0    2
         3     6       2    0    9    0
  9      1     2       6    0    9    0
         2     3       4    0    9    0
         3     6       1    0    9    0
 10      1     1       8    0    0    2
         2     2       7    0    0    2
         3     5       2    0    0    1
 11      1     2       4    0    9    0
         2     2       0    5    0    5
         3     3       0    4    0    3
 12      1     0       0    0    0    0
************************************************************************
RESOURCEAVAILABILITIES:
  R 1  R 2  N 1  N 2
   15   20   47   23
************************************************************************
MAXIMAL LAGS:
from  to  type  delay
    1   12   ES      0
    1    2   ES      0
    2   12   ES      0
    1    3   ES      0
    3   12   ES      0
    1    4   ES      0
    4   12   ES      0
    1    5   ES      0
    5   12   ES      0
    1    6   ES      0
    6   12   ES      0
    1    7   ES      0
    7   12   ES      0
    1    8   ES      0
    8   12   ES      0
    1    9   ES      0
    9   12   ES      0
    1   10   ES      0
   10   12   ES      0
    1   11   ES      0
   11   12   ES      0
    1   12   ES      0
    2    7   SS    -12
    2    7   SE     12
    2    7   ES     10
    2    7   EE     -4
    3    5   SS      5
    3    5   SE      4
    3    5   ES      5
    3    5   EE      6
    4    5   SS      6
    4    5   SE     -8
    4    5   ES     -9
    4    5   EE    -11
    4    6   SS      2
    4    6   SE     -1
    4    6   ES     -8
    4    6   EE     -8
    4    8   SS     -4
    4    8   SE     -1
    4    8   ES      6
    4    8   EE     -5
    5    7   SS     -5
    5    7   SE     -4
    5    7   ES     -3
    5    7   EE    -10
    5   11   SS      6
    5   11   SE      0
    5   11   ES      6
    5   11   EE     -6
    6    9   SS     11
    6    9   SE    -10
    6    9   ES     11
    6    9   EE     -2
    6   11   SS      3
    6   11   SE     -7
    6   11   ES      3
    6   11   EE     10
    7    9   SS     10
    7    9   SE      6
    7    9   ES     -9
    7    9   EE      7
    7   10   SS      8
    7   10   SE     -3
    7   10   ES    -11
    7   10   EE     11
    8   10   SS      6
    8   10   SE      0
    8   10   ES    -10
    8   10   EE     12
************************************************************************
